Version identifier: 20.1.0.0 | 2020-11-10 | 9bedb6d68
CPXPARAM_Threads                                 1
CPXPARAM_TimeLimit                               7200
CPXPARAM_MIP_Tolerances_MIPGap                   0
Generic callback                                 0x60
1 of 1 MIP starts provided solutions.
MIP start 'm1' defined initial solution with objective 1116.9016.
Tried aggregator 1 time.
Reduced MIP has 250501 rows, 250501 columns, and 750500 nonzeros.
Reduced MIP has 500 binaries, 0 generals, 0 SOSs, and 0 indicators.
Presolve time = 0.25 sec. (239.04 ticks)
Probing time = 0.04 sec. (31.29 ticks)
Tried aggregator 1 time.
Reduced MIP has 250501 rows, 250501 columns, and 750500 nonzeros.
Reduced MIP has 500 binaries, 0 generals, 0 SOSs, and 0 indicators.
Presolve time = 0.26 sec. (234.98 ticks)
Probing time = 0.03 sec. (31.29 ticks)
MIP emphasis: balance optimality and feasibility.
MIP search method: dynamic search.
Parallel mode: none, using 1 thread.
Root relaxation solution time = 0.08 sec. (96.48 ticks)

        Nodes                                         Cuts/
   Node  Left     Objective  IInf  Best Integer    Best Bound    ItCnt     Gap

*     0+    0                         1116.9016     2716.0000           143.17%
      0     0     1121.1630     6     1116.9016     2716.0000        0  143.17%
*     0+    0                         1120.2088     1121.1630             0.09%
      0     0        cutoff           1120.2088     1121.1630        0    0.09%
      0     2     1121.0742     6     1120.2088     1121.0742        0    0.08%
Elapsed time = 69.11 sec. (54256.39 ticks, tree = 0.01 MB, solutions = 2)
      1     3     1121.0600     6     1120.2088     1121.0742      111    0.08%
      2     4     1120.9775     4     1120.2088     1121.0600      266    0.08%
*     3     3      integral     0     1120.9502     1121.0600      334    0.01%
      3     3     1120.9502     0     1120.9502     1121.0600      334    0.01%
      4     2        cutoff           1120.9502     1121.0600      350    0.01%
      5     1        cutoff           1120.9502     1121.0598      406    0.01%
*     6     0      integral     0     1121.0532     1121.0532      489    0.00%

User cuts applied:  2

Root node processing (before b&c):
  Real time             =   69.12 sec. (54262.62 ticks)
Sequential b&c:
  Real time             =    7.45 sec. (3710.25 ticks)
                          ------------
Total (root+branch&cut) =   76.56 sec. (57972.87 ticks)
@Parameters: 
is_S_cut                                true
is_add_all_yinF                         true
is_start_value                          true
is_usercut                              true
is_visualization                        false
uc_only_rootnode                        false

data                                    Qi
fn                                      data/Qi/instance_500_500.csv
mode                                    ZLP
solver                                  cplex

p                                       5
r                                       10

EPS                                     1.0e-06
EPS_vio                                 1.0e-04
beta                                    0.10
gap                                     0.00
nodelimit                               Inf
timelimit                               7200.00


@PrintInfos
ItCnt: 489
Current gap: 0.00 %
Termination Status: OPTIMAL
Primal Status: FEASIBLE_POINT
Solve Time: 76.56 sec
Objective Value: 1121.053223
Number of Nodes:      7

CutInfo: [phase] num / time (sec) 
ZLP             [phase1]     0 / 0.00 [rLC]     4 / 6.71 [rUC]     2 / 1.75 [sLC]     0 / 1.21 [sUC]     0 / 2.53 
OldSubmodular   [phase1]     0 / 0.00 [rLC]     0 / 0.00 [rUC]     0 / 0.00 [sLC]     0 / 0.00 [sUC]     0 / 0.00 
NewSubmodular   [phase1]     0 / 0.00 [rLC]     0 / 0.00 [rUC]     0 / 0.00 [sLC]     0 / 0.00 [sUC]     0 / 0.00 
PMP             [phase1]     0 / 0.00 [rLC]     6 / 4.32 [rUC]     2 / 1.09 [sLC]     2 / 1.00 [sUC]     4 / 1.94 
Separation Round: [phase1] 0  [rLC] 6  [rUC] 2  [sLC] 2  [sUC] 4
Root Best Bound 1121.059978
Root Best Integer: 1120.208776
Best Bound: 1121.053223
Best Integer: 1121.053223

